GRAPH IS : 
0 0 0 0 0 0 0 0 0 0 0 0 0 0 0 0 0 0 0 0 0 0 0 0 0 0 0 0 0 0 0 0 0 0 0 0 0 0 0 0 0 0 0 0 0 0 0 0 0 0 0 0 0 0 0 0 0 0 0 0 0 0 0 0 0 0 0 0 0 0 0 0 0 0 0 0 0 0 0 0 
0 0 0 0 0 0 0 0 0 0 0 0 0 0 1 0 0 0 0 0 0 0 0 0 0 0 0 0 0 0 0 0 0 0 0 0 0 0 0 0 0 0 0 0 0 0 0 0 0 0 0 0 0 0 0 0 0 0 0 0 0 0 0 0 0 0 0 0 0 0 0 0 0 0 0 0 0 0 0 0 
0 0 0 0 0 0 0 0 0 0 0 0 0 0 1 0 0 0 0 0 0 0 0 0 0 0 0 0 0 0 0 0 0 0 0 0 0 1 0 0 0 0 0 0 0 0 0 0 0 0 0 0 0 0 0 0 0 0 0 0 0 0 0 0 0 0 0 0 0 0 0 0 0 0 0 1 0 0 0 0 
0 0 0 0 0 1 0 0 0 0 0 0 0 0 0 0 0 0 0 0 0 0 0 0 0 1 0 1 1 0 0 0 0 1 0 0 0 1 0 0 1 0 0 0 1 0 1 0 0 0 0 0 0 0 1 0 0 1 0 0 1 0 0 1 0 0 0 0 0 1 0 0 0 1 0 0 0 0 0 0 
0 0 0 0 0 0 0 1 0 1 0 0 0 0 0 0 0 0 0 1 0 0 0 0 0 0 0 0 0 0 0 0 0 0 1 0 0 0 0 0 0 0 0 0 0 0 0 1 0 0 1 0 0 0 0 0 0 0 0 0 0 0 0 0 0 0 1 0 1 0 0 0 1 0 0 0 0 0 0 1 
0 0 0 1 0 0 0 0 0 0 1 0 0 0 0 0 0 1 0 0 1 0 1 0 0 0 0 0 1 0 0 0 0 0 0 0 0 1 0 1 0 0 0 0 0 0 0 0 0 0 0 0 0 0 0 0 0 0 0 0 0 0 0 0 0 0 0 0 0 0 0 0 0 0 0 0 0 0 0 0 
0 0 0 0 0 0 0 0 0 0 0 0 0 0 0 0 1 0 0 0 0 0 0 0 0 0 0 0 1 0 0 0 0 0 0 1 0 1 0 0 0 0 0 0 0 0 0 0 1 0 0 0 0 0 0 1 0 1 1 0 0 0 0 0 0 0 0 0 0 0 0 0 1 0 0 0 0 0 0 0 
0 0 0 0 1 0 0 0 0 1 0 0 0 0 0 1 0 0 0 1 0 0 0 0 0 0 0 0 0 0 0 0 0 0 1 0 0 0 1 0 0 0 0 0 0 0 0 1 0 0 1 0 0 0 0 0 0 0 0 0 0 0 0 0 0 0 1 0 1 0 0 0 1 0 0 0 0 0 0 1 
0 0 0 0 0 0 0 0 0 0 0 0 0 0 0 0 0 0 0 0 0 0 0 0 0 0 0 0 0 0 0 0 0 0 0 0 0 0 0 0 0 0 0 0 0 0 0 0 0 0 0 0 0 0 0 0 1 0 0 0 0 0 0 0 0 0 0 0 0 0 0 0 1 0 0 0 0 0 0 0 
0 0 0 0 1 0 0 1 0 0 0 0 0 0 0 1 0 0 0 1 0 0 0 0 0 0 0 0 1 0 0 0 0 0 1 1 0 1 1 0 0 0 0 0 0 0 0 1 0 0 1 0 0 0 0 0 0 0 0 0 0 0 0 0 0 0 1 0 1 0 0 0 1 0 0 0 0 0 0 1 
0 0 0 0 0 1 0 0 0 0 0 0 0 0 0 0 0 1 0 0 1 0 1 0 0 0 0 0 0 0 0 0 0 0 0 0 0 1 0 1 0 0 0 0 0 0 0 0 0 0 0 0 0 0 0 0 0 0 0 0 0 0 0 0 0 0 0 0 0 0 0 0 0 0 0 0 0 0 0 0 
0 0 0 0 0 0 0 0 0 0 0 0 0 0 0 0 0 0 0 0 0 0 0 0 0 0 0 0 0 0 0 0 0 0 0 0 0 0 0 0 0 0 1 0 0 0 0 0 0 0 0 0 0 0 0 0 0 0 0 0 0 0 0 0 0 0 0 0 0 0 0 0 1 0 0 0 0 0 0 0 
0 0 0 0 0 0 0 0 0 0 0 0 0 0 1 0 0 0 0 0 0 0 0 0 0 0 0 0 0 0 0 0 0 0 0 0 0 0 0 0 0 0 0 0 0 0 0 0 0 0 0 0 0 0 0 0 0 0 0 0 0 0 0 0 0 0 0 0 0 0 0 0 0 0 0 0 0 0 0 0 
0 0 0 0 0 0 0 0 0 0 0 0 0 0 0 0 0 0 0 0 0 0 0 0 0 0 0 0 0 0 0 0 0 0 0 0 0 0 0 0 0 0 0 1 0 0 0 0 0 0 0 0 0 0 0 0 0 0 0 0 0 0 0 0 0 0 0 0 0 0 0 0 0 0 0 0 0 0 0 0 
0 1 1 0 0 0 0 0 0 0 0 0 1 0 0 0 0 0 0 0 0 0 0 0 1 0 0 0 0 0 0 0 1 0 0 0 0 1 0 0 0 1 0 0 0 0 0 0 0 0 0 0 0 0 0 0 0 0 0 0 0 0 0 0 0 1 0 0 0 0 0 0 0 0 0 1 0 0 0 0 
0 0 0 0 0 0 0 1 0 1 0 0 0 0 0 0 0 0 0 1 0 0 0 1 0 0 1 0 0 1 0 0 0 1 1 0 0 1 1 0 0 0 0 0 0 0 0 0 1 0 0 0 0 0 0 0 0 1 0 1 0 0 0 0 0 0 1 0 1 0 0 0 1 0 0 0 1 1 0 1 
0 0 0 0 0 0 1 0 0 0 0 0 0 0 0 0 0 0 0 0 0 0 0 0 0 0 0 0 0 0 0 0 0 0 0 1 0 0 0 0 0 0 0 0 0 0 0 0 1 0 0 0 0 0 0 1 0 1 1 0 0 0 0 0 0 0 0 0 0 0 0 0 1 0 0 0 0 0 0 0 
0 0 0 0 0 1 0 0 0 0 1 0 0 0 0 0 0 0 0 0 1 0 1 0 0 0 0 0 0 0 0 0 0 0 0 0 0 1 0 1 0 0 0 0 0 0 0 0 0 0 0 0 0 0 0 0 0 0 0 0 0 0 0 0 0 0 0 0 0 0 0 0 0 0 0 0 0 0 0 0 
0 0 0 0 0 0 0 0 0 0 0 0 0 0 0 0 0 0 0 0 0 0 0 0 0 0 0 0 0 0 0 0 0 0 0 0 0 0 0 0 0 0 0 0 1 0 0 0 1 0 0 0 0 0 0 0 0 1 0 0 0 0 0 0 0 0 0 0 0 0 0 0 0 0 0 0 0 0 0 0 
0 0 0 0 1 0 0 1 0 1 0 0 0 0 0 1 0 0 0 0 0 0 0 0 0 0 0 0 0 0 0 0 0 0 1 0 0 0 1 0 0 0 0 0 0 0 0 1 0 0 1 0 0 0 0 0 0 0 0 0 0 0 0 0 0 0 1 0 1 0 0 0 1 0 0 0 0 0 0 1 
0 0 0 0 0 1 0 0 0 0 1 0 0 0 0 0 0 1 0 0 0 0 1 0 0 0 0 0 0 0 0 0 0 0 0 0 0 1 0 1 0 0 0 0 0 0 0 0 0 0 0 0 0 0 0 0 0 0 0 0 0 0 0 0 0 0 0 0 0 0 0 0 0 0 0 0 0 0 0 0 
0 0 0 0 0 0 0 0 0 0 0 0 0 0 0 0 0 0 0 0 0 0 0 0 0 0 0 0 0 0 0 0 0 0 0 0 0 0 0 0 0 0 0 0 0 0 0 0 0 0 0 0 0 0 0 0 0 0 0 0 0 0 0 0 0 0 0 0 0 0 0 0 0 0 0 0 0 0 0 0 
0 0 0 0 0 1 0 0 0 0 1 0 0 0 0 0 0 1 0 0 1 0 0 0 0 0 0 0 0 0 0 0 0 0 0 0 0 1 0 1 0 0 0 0 0 0 0 0 0 0 0 0 0 0 0 0 0 0 0 0 0 0 0 0 0 0 0 0 0 0 0 0 0 0 0 0 0 0 0 0 
0 0 0 0 0 0 0 0 0 0 0 0 0 0 0 1 0 0 0 0 0 0 0 0 0 0 0 0 0 0 0 0 0 0 0 0 0 0 0 0 0 0 0 0 0 0 0 0 0 0 0 0 0 0 0 0 0 0 0 0 0 0 0 0 0 0 0 0 0 0 0 0 0 0 0 0 0 1 0 0 
0 0 0 0 0 0 0 0 0 0 0 0 0 0 1 0 0 0 0 0 0 0 0 0 0 0 0 0 0 0 0 0 0 0 0 0 0 0 0 0 0 0 0 0 0 0 0 0 0 0 0 0 0 0 0 0 0 0 0 0 0 0 0 0 0 0 0 0 0 0 0 0 0 0 0 0 0 0 0 0 
0 0 0 1 0 0 0 0 0 0 0 0 0 0 0 0 0 0 0 0 0 0 0 0 0 0 0 1 0 0 0 0 0 1 0 0 0 0 0 0 1 0 0 0 0 0 0 0 0 0 0 0 0 0 0 0 0 0 0 0 0 0 0 1 0 0 0 0 0 1 0 0 0 1 0 0 0 0 0 0 
0 0 0 0 0 0 0 0 0 0 0 0 0 0 0 1 0 0 0 0 0 0 0 0 0 0 0 0 0 1 0 0 0 0 0 0 0 0 0 0 0 0 0 0 0 0 0 0 0 0 0 0 0 0 0 0 0 0 0 1 0 0 0 0 0 0 0 0 0 0 0 0 0 0 0 0 0 1 0 0 
0 0 0 1 0 0 0 0 0 0 0 0 0 0 0 0 0 0 0 0 0 0 0 0 0 1 0 0 0 0 0 0 0 1 0 0 0 0 0 0 1 0 0 0 0 0 0 0 0 0 0 0 0 0 0 0 0 0 0 0 0 0 0 1 0 0 0 0 0 1 0 0 0 1 0 0 0 0 0 0 
0 0 0 1 0 1 1 0 0 1 0 0 0 0 0 0 0 0 0 0 0 0 0 0 0 0 0 0 0 0 1 1 0 0 0 1 0 1 0 0 0 0 0 1 1 0 1 0 0 0 0 0 0 0 0 1 0 1 1 1 0 0 0 0 1 0 0 0 0 0 0 0 1 0 0 0 0 0 0 0 
0 0 0 0 0 0 0 0 0 0 0 0 0 0 0 1 0 0 0 0 0 0 0 0 0 0 1 0 0 0 0 0 0 0 0 0 1 1 0 0 0 0 0 0 0 1 0 0 0 0 0 0 0 0 0 0 0 0 0 1 0 0 0 0 0 0 0 0 0 0 0 0 0 0 0 0 0 1 0 0 
0 0 0 0 0 0 0 0 0 0 0 0 0 0 0 0 0 0 0 0 0 0 0 0 0 0 0 0 1 0 0 0 0 0 0 0 0 1 0 0 0 0 0 0 0 0 0 0 0 0 0 0 0 0 0 0 0 0 0 1 0 0 0 0 0 0 0 0 0 0 0 0 0 0 0 0 0 0 0 0 
0 0 0 0 0 0 0 0 0 0 0 0 0 0 0 0 0 0 0 0 0 0 0 0 0 0 0 0 1 0 0 0 0 0 0 0 0 1 0 0 0 0 0 0 0 0 0 0 0 0 0 0 0 0 0 0 0 0 0 0 0 0 0 0 0 0 0 0 0 0 0 0 0 0 0 0 0 0 0 0 
0 0 0 0 0 0 0 0 0 0 0 0 0 0 1 0 0 0 0 0 0 0 0 0 0 0 0 0 0 0 0 0 0 0 0 0 0 0 0 0 0 0 0 0 0 0 0 0 0 0 0 0 0 0 0 0 0 0 0 0 0 0 0 0 0 0 0 0 0 0 0 0 0 0 0 0 0 0 0 0 
0 0 0 1 0 0 0 0 0 0 0 0 0 0 0 1 0 0 0 0 0 0 0 0 0 1 0 1 0 0 0 0 0 0 0 0 0 0 0 0 1 0 0 0 0 0 0 0 0 0 0 0 0 0 0 0 0 0 0 1 0 0 0 1 0 0 0 0 0 1 0 0 0 1 0 0 0 0 0 0 
0 0 0 0 1 0 0 1 0 1 0 0 0 0 0 1 0 0 0 1 0 0 0 0 0 0 0 0 0 0 0 0 0 0 0 0 0 0 1 0 0 0 0 0 0 0 0 1 1 0 1 0 0 0 0 0 0 0 0 0 0 0 0 0 0 0 1 0 1 0 0 0 1 0 0 0 0 0 0 1 
0 0 0 0 0 0 1 0 0 1 0 0 0 0 0 0 1 0 0 0 0 0 0 0 0 0 0 0 1 0 0 0 0 0 0 0 0 1 0 0 0 0 0 0 1 0 0 0 1 0 0 0 0 0 0 1 0 1 1 0 0 0 0 0 0 0 0 0 0 0 0 0 0 0 0 0 0 0 0 0 
0 0 0 0 0 0 0 0 0 0 0 0 0 0 0 0 0 0 0 0 0 0 0 0 0 0 0 0 0 1 0 0 0 0 0 0 0 0 0 0 0 0 0 0 0 0 0 0 0 0 0 0 0 0 0 0 0 0 0 0 0 0 0 0 0 0 0 0 0 0 0 0 0 0 0 0 0 0 0 0 
0 0 1 1 0 1 1 0 0 1 1 0 0 0 1 1 0 1 0 0 1 0 1 0 0 0 0 0 1 1 1 1 0 0 0 1 0 0 0 1 0 0 0 1 1 0 1 0 0 0 0 0 0 1 0 1 0 1 1 1 1 1 1 0 1 0 1 1 0 0 1 0 1 0 0 1 0 1 1 0 
0 0 0 0 0 0 0 1 0 1 0 0 0 0 0 1 0 0 0 1 0 0 0 0 0 0 0 0 0 0 0 0 0 0 1 0 0 0 0 0 0 0 0 0 0 0 0 0 1 0 0 0 1 0 0 0 0 0 0 0 0 0 0 0 0 0 1 0 1 0 0 0 1 0 0 0 0 0 0 1 
0 0 0 0 0 1 0 0 0 0 1 0 0 0 0 0 0 1 0 0 1 0 1 0 0 0 0 0 0 0 0 0 0 0 0 0 0 1 0 0 0 0 0 0 0 0 0 0 0 0 0 0 0 0 0 0 0 0 0 0 0 0 0 0 0 0 0 0 0 0 0 0 0 0 0 0 0 0 0 0 
0 0 0 1 0 0 0 0 0 0 0 0 0 0 0 0 0 0 0 0 0 0 0 0 0 1 0 1 0 0 0 0 0 1 0 0 0 0 0 0 0 0 0 0 0 0 0 0 0 0 0 0 0 0 0 0 0 0 0 0 0 0 0 1 0 0 0 0 0 1 0 0 0 1 0 0 0 0 0 0 
0 0 0 0 0 0 0 0 0 0 0 0 0 0 1 0 0 0 0 0 0 0 0 0 0 0 0 0 0 0 0 0 0 0 0 0 0 0 0 0 0 0 0 0 0 0 0 0 0 0 0 0 0 0 0 0 0 0 0 0 0 0 0 0 0 0 0 0 0 0 0 0 0 0 0 0 0 0 0 0 
0 0 0 0 0 0 0 0 0 0 0 1 0 0 0 0 0 0 0 0 0 0 0 0 0 0 0 0 0 0 0 0 0 0 0 0 0 0 0 0 0 0 0 0 0 0 0 0 0 0 0 0 0 0 0 0 0 0 0 0 0 0 0 0 0 0 0 0 0 0 0 0 1 0 0 0 0 0 0 0 
0 0 0 0 0 0 0 0 0 0 0 0 0 1 0 0 0 0 0 0 0 0 0 0 0 0 0 0 1 0 0 0 0 0 0 0 0 1 0 0 0 0 0 0 0 0 0 0 0 0 0 0 0 0 0 0 0 0 0 0 0 0 0 0 0 0 0 0 0 0 0 0 0 0 0 0 0 0 1 0 
0 0 0 1 0 0 0 0 0 0 0 0 0 0 0 0 0 0 1 0 0 0 0 0 0 0 0 0 1 0 0 0 0 0 0 1 0 1 0 0 0 0 0 0 0 0 0 0 1 0 0 0 0 0 0 1 0 1 1 1 0 0 0 0 0 0 0 0 0 0 0 0 0 0 1 0 0 0 0 0 
0 0 0 0 0 0 0 0 0 0 0 0 0 0 0 0 0 0 0 0 0 0 0 0 0 0 0 0 0 1 0 0 0 0 0 0 0 0 0 0 0 0 0 0 0 0 0 0 0 0 0 0 0 0 0 0 0 0 0 0 0 0 0 0 0 0 0 0 0 0 0 0 0 0 0 0 1 0 0 0 
0 0 0 1 0 0 0 0 0 0 0 0 0 0 0 0 0 0 0 0 0 0 0 0 0 0 0 0 1 0 0 0 0 0 0 0 0 1 0 0 0 0 0 0 0 0 0 0 0 0 0 0 0 0 1 0 0 0 0 0 0 0 0 0 0 0 0 0 0 0 0 0 0 0 0 0 0 0 0 0 
0 0 0 0 1 0 0 1 0 1 0 0 0 0 0 0 0 0 0 1 0 0 0 0 0 0 0 0 0 0 0 0 0 0 1 0 0 0 0 0 0 0 0 0 0 0 0 0 0 0 0 0 0 0 0 0 0 0 0 0 0 0 0 0 0 0 1 0 0 0 0 0 1 0 0 0 0 0 0 0 
0 0 0 0 0 0 1 0 0 0 0 0 0 0 0 1 1 0 1 0 0 0 0 0 0 0 0 0 0 0 0 0 0 0 1 1 0 0 1 0 0 0 0 0 1 0 0 0 0 0 0 0 0 0 0 1 0 1 1 0 0 0 0 0 0 0 0 0 0 0 0 0 0 0 0 0 0 0 0 0 
0 0 0 0 0 0 0 0 0 0 0 0 0 0 0 0 0 0 0 0 0 0 0 0 0 0 0 0 0 0 0 0 0 0 0 0 0 0 0 0 0 0 0 0 0 0 0 0 0 0 0 0 0 0 0 0 0 0 0 0 0 0 0 0 0 0 0 0 0 0 0 0 0 0 0 0 0 0 0 0 
0 0 0 0 1 0 0 1 0 1 0 0 0 0 0 0 0 0 0 1 0 0 0 0 0 0 0 0 0 0 0 0 0 0 1 0 0 0 0 0 0 0 0 0 0 0 0 0 0 0 0 0 0 0 0 0 0 0 0 0 0 0 0 0 0 0 1 0 1 0 0 0 1 0 0 0 0 0 0 1 
0 0 0 0 0 0 0 0 0 0 0 0 0 0 0 0 0 0 0 0 0 0 0 0 0 0 0 0 0 0 0 0 0 0 0 0 0 0 0 0 0 0 0 0 0 0 0 0 0 0 0 0 0 0 0 0 0 1 0 0 0 0 0 0 0 0 0 0 0 0 0 0 0 0 0 0 0 0 0 0 
0 0 0 0 0 0 0 0 0 0 0 0 0 0 0 0 0 0 0 0 0 0 0 0 0 0 0 0 0 0 0 0 0 0 0 0 0 0 1 0 0 0 0 0 0 0 0 0 0 0 0 0 0 0 0 0 0 0 0 0 0 0 0 0 0 0 0 0 0 0 0 0 0 0 0 0 0 0 0 0 
0 0 0 0 0 0 0 0 0 0 0 0 0 0 0 0 0 0 0 0 0 0 0 0 0 0 0 0 0 0 0 0 0 0 0 0 0 1 0 0 0 0 0 0 0 0 0 0 0 0 0 0 0 0 0 0 0 0 0 0 0 0 0 0 0 0 0 0 0 0 0 0 0 0 0 0 0 0 0 0 
0 0 0 1 0 0 0 0 0 0 0 0 0 0 0 0 0 0 0 0 0 0 0 0 0 0 0 0 0 0 0 0 0 0 0 0 0 0 0 0 0 0 0 0 0 0 1 0 0 0 0 0 0 0 0 0 0 0 0 0 0 0 0 0 0 0 0 0 0 0 0 0 0 0 0 0 0 0 0 0 
0 0 0 0 0 0 1 0 0 0 0 0 0 0 0 0 1 0 0 0 0 0 0 0 0 0 0 0 1 0 0 0 0 0 0 1 0 1 0 0 0 0 0 0 1 0 0 0 1 0 0 0 0 0 0 0 0 1 1 0 0 0 0 0 0 0 0 0 0 0 0 0 1 0 0 0 0 0 0 0 
0 0 0 0 0 0 0 0 1 0 0 0 0 0 0 0 0 0 0 0 0 0 0 0 0 0 0 0 0 0 0 0 0 0 0 0 0 0 0 0 0 0 0 0 0 0 0 0 0 0 0 0 0 0 0 0 0 0 0 0 0 0 0 0 0 0 0 0 0 0 0 0 0 0 0 0 0 0 0 0 
0 0 0 1 0 0 1 0 0 0 0 0 0 0 0 1 1 0 1 0 0 0 0 0 0 0 0 0 1 0 0 0 0 0 0 1 0 1 0 0 0 0 0 0 1 0 0 0 1 0 0 1 0 0 0 1 0 0 1 1 0 0 0 0 0 0 0 0 0 0 0 0 1 0 0 0 1 0 0 0 
0 0 0 0 0 0 1 0 0 0 0 0 0 0 0 0 1 0 0 0 0 0 0 0 0 0 0 0 1 0 0 0 0 0 0 1 0 1 0 0 0 0 0 0 1 0 0 0 1 0 0 0 0 0 0 1 0 1 0 0 0 0 0 0 0 0 0 0 0 0 0 0 1 0 0 0 0 0 0 0 
0 0 0 0 0 0 0 0 0 0 0 0 0 0 0 1 0 0 0 0 0 0 0 0 0 0 1 0 1 1 1 0 0 1 0 0 0 1 0 0 0 0 0 0 1 0 0 0 0 0 0 0 0 0 0 0 0 1 0 0 0 0 0 0 1 0 0 0 0 0 0 0 0 0 0 0 0 1 0 0 
0 0 0 1 0 0 0 0 0 0 0 0 0 0 0 0 0 0 0 0 0 0 0 0 0 0 0 0 0 0 0 0 0 0 0 0 0 1 0 0 0 0 0 0 0 0 0 0 0 0 0 0 0 0 0 0 0 0 0 0 0 0 0 0 0 0 0 0 0 0 0 0 0 0 0 0 0 0 0 0 
0 0 0 0 0 0 0 0 0 0 0 0 0 0 0 0 0 0 0 0 0 0 0 0 0 0 0 0 0 0 0 0 0 0 0 0 0 1 0 0 0 0 0 0 0 0 0 0 0 0 0 0 0 0 0 0 0 0 0 0 0 0 0 0 0 0 0 0 0 0 0 0 0 0 0 0 0 0 0 0 
0 0 0 0 0 0 0 0 0 0 0 0 0 0 0 0 0 0 0 0 0 0 0 0 0 0 0 0 0 0 0 0 0 0 0 0 0 1 0 0 0 0 0 0 0 0 0 0 0 0 0 0 0 0 0 0 0 0 0 0 0 0 0 0 0 0 0 0 0 0 0 0 0 0 0 0 0 0 0 0 
0 0 0 1 0 0 0 0 0 0 0 0 0 0 0 0 0 0 0 0 0 0 0 0 0 1 0 1 0 0 0 0 0 1 0 0 0 0 0 0 1 0 0 0 0 0 0 0 0 0 0 0 0 0 0 0 0 0 0 0 0 0 0 0 0 0 0 0 0 1 0 0 0 1 0 0 0 0 0 0 
0 0 0 0 0 0 0 0 0 0 0 0 0 0 0 0 0 0 0 0 0 0 0 0 0 0 0 0 1 0 0 0 0 0 0 0 0 1 0 0 0 0 0 0 0 0 0 0 0 0 0 0 0 0 0 0 0 0 0 1 0 0 0 0 0 0 0 0 0 0 0 0 0 0 0 0 0 0 0 0 
0 0 0 0 0 0 0 0 0 0 0 0 0 0 1 0 0 0 0 0 0 0 0 0 0 0 0 0 0 0 0 0 0 0 0 0 0 0 0 0 0 0 0 0 0 0 0 0 0 0 0 0 0 0 0 0 0 0 0 0 0 0 0 0 0 0 0 0 0 0 0 0 0 0 0 0 0 0 0 0 
0 0 0 0 1 0 0 1 0 1 0 0 0 0 0 1 0 0 0 1 0 0 0 0 0 0 0 0 0 0 0 0 0 0 1 0 0 1 1 0 0 0 0 0 0 0 0 1 0 0 1 0 0 0 0 0 0 0 0 0 0 0 0 0 0 0 0 0 1 0 0 0 1 0 0 0 0 0 0 1 
0 0 0 0 0 0 0 0 0 0 0 0 0 0 0 0 0 0 0 0 0 0 0 0 0 0 0 0 0 0 0 0 0 0 0 0 0 1 0 0 0 0 0 0 0 0 0 0 0 0 0 0 0 0 0 0 0 0 0 0 0 0 0 0 0 0 0 0 0 0 0 0 0 0 0 0 0 0 0 0 
0 0 0 0 1 0 0 1 0 1 0 0 0 0 0 1 0 0 0 1 0 0 0 0 0 0 0 0 0 0 0 0 0 0 1 0 0 0 1 0 0 0 0 0 0 0 0 0 0 0 1 0 0 0 0 0 0 0 0 0 0 0 0 0 0 0 1 0 0 0 0 0 1 0 0 0 0 0 0 1 
0 0 0 1 0 0 0 0 0 0 0 0 0 0 0 0 0 0 0 0 0 0 0 0 0 1 0 1 0 0 0 0 0 1 0 0 0 0 0 0 1 0 0 0 0 0 0 0 0 0 0 0 0 0 0 0 0 0 0 0 0 0 0 1 0 0 0 0 0 0 0 0 0 1 0 0 0 0 0 0 
0 0 0 0 0 0 0 0 0 0 0 0 0 0 0 0 0 0 0 0 0 0 0 0 0 0 0 0 0 0 0 0 0 0 0 0 0 1 0 0 0 0 0 0 0 0 0 0 0 0 0 0 0 0 0 0 0 0 0 0 0 0 0 0 0 0 0 0 0 0 0 0 0 0 0 0 0 0 0 0 
0 0 0 0 0 0 0 0 0 0 0 0 0 0 0 0 0 0 0 0 0 0 0 0 0 0 0 0 0 0 0 0 0 0 0 0 0 0 0 0 0 0 0 0 0 0 0 0 0 0 0 0 0 0 0 0 0 0 0 0 0 0 0 0 0 0 0 0 0 0 0 0 0 0 0 0 0 0 0 0 
0 0 0 0 1 0 1 1 1 1 0 1 0 0 0 1 1 0 0 1 0 0 0 0 0 0 0 0 1 0 0 0 0 0 1 0 0 1 1 0 0 0 1 0 0 0 0 1 0 0 1 0 0 0 0 1 0 1 1 0 0 0 0 0 0 0 1 0 1 0 0 0 0 0 0 0 0 0 0 1 
0 0 0 1 0 0 0 0 0 0 0 0 0 0 0 0 0 0 0 0 0 0 0 0 0 1 0 1 0 0 0 0 0 1 0 0 0 0 0 0 1 0 0 0 0 0 0 0 0 0 0 0 0 0 0 0 0 0 0 0 0 0 0 1 0 0 0 0 0 1 0 0 0 0 0 0 0 0 0 0 
0 0 0 0 0 0 0 0 0 0 0 0 0 0 0 0 0 0 0 0 0 0 0 0 0 0 0 0 0 0 0 0 0 0 0 0 0 0 0 0 0 0 0 0 1 0 0 0 0 0 0 0 0 0 0 0 0 0 0 0 0 0 0 0 0 0 0 0 0 0 0 0 0 0 0 0 0 1 0 0 
0 0 1 0 0 0 0 0 0 0 0 0 0 0 1 0 0 0 0 0 0 0 0 0 0 0 0 0 0 0 0 0 0 0 0 0 0 1 0 0 0 0 0 0 0 0 0 0 0 0 0 0 0 0 0 0 0 0 0 0 0 0 0 0 0 0 0 0 0 0 0 0 0 0 0 0 0 0 0 0 
0 0 0 0 0 0 0 0 0 0 0 0 0 0 0 1 0 0 0 0 0 0 0 0 0 0 0 0 0 0 0 0 0 0 0 0 0 0 0 0 0 0 0 0 0 1 0 0 0 0 0 0 0 0 0 0 0 1 0 0 0 0 0 0 0 0 0 0 0 0 0 0 0 0 0 0 0 0 0 0 
0 0 0 0 0 0 0 0 0 0 0 0 0 0 0 1 0 0 0 0 0 0 0 1 0 0 1 0 0 1 0 0 0 0 0 0 0 1 0 0 0 0 0 0 0 0 0 0 0 0 0 0 0 0 0 0 0 0 0 1 0 0 0 0 0 0 0 0 0 0 0 0 0 0 1 0 0 0 0 0 
0 0 0 0 0 0 0 0 0 0 0 0 0 0 0 0 0 0 0 0 0 0 0 0 0 0 0 0 0 0 0 0 0 0 0 0 0 1 0 0 0 0 0 1 0 0 0 0 0 0 0 0 0 0 0 0 0 0 0 0 0 0 0 0 0 0 0 0 0 0 0 0 0 0 0 0 0 0 0 0 
0 0 0 0 1 0 0 1 0 1 0 0 0 0 0 1 0 0 0 1 0 0 0 0 0 0 0 0 0 0 0 0 0 0 1 0 0 0 1 0 0 0 0 0 0 0 0 0 0 0 1 0 0 0 0 0 0 0 0 0 0 0 0 0 0 0 1 0 1 0 0 0 1 0 0 0 0 0 0 0 




----------------------------

EPOCH: 0 MAX:  -40.000000000    AVG:  -45.428125000
EPOCH: 1 MAX:  -40.000000000    AVG:  -43.631250000
EPOCH: 2 MAX:  -38.125000000    AVG:  -42.646875000
EPOCH: 3 MAX:  -38.125000000    AVG:  -42.037500000
EPOCH: 4 MAX:  -38.125000000    AVG:  -41.650000000
EPOCH: 5 MAX:  -38.125000000    AVG:  -41.015625000
EPOCH: 6 MAX:  -38.125000000    AVG:  -40.318750000
EPOCH: 7 MAX:  -37.500000000    AVG:  -39.665625000
EPOCH: 8 MAX:  -36.875000000    AVG:  -38.962500000
EPOCH: 9 MAX:  -36.875000000    AVG:  -38.343750000
EPOCH: 10 MAX:  -36.250000000    AVG:  -37.812500000
EPOCH: 11 MAX:  -35.625000000    AVG:  -37.396875000
EPOCH: 12 MAX:  -35.000000000    AVG:  -36.921875000
EPOCH: 13 MAX:  -35.000000000    AVG:  -36.365625000
EPOCH: 14 MAX:  -35.000000000    AVG:  -36.100000000
EPOCH: 15 MAX:  -35.000000000    AVG:  -35.887500000
EPOCH: 16 MAX:  -34.375000000    AVG:  -35.487500000
EPOCH: 17 MAX:  -34.375000000    AVG:  -35.143750000
EPOCH: 18 MAX:  -34.375000000    AVG:  -34.937500000
EPOCH: 19 MAX:  -34.375000000    AVG:  -34.834375000
EPOCH: 20 MAX:  -33.750000000    AVG:  -34.537500000
EPOCH: 21 MAX:  -33.750000000    AVG:  -34.325000000
EPOCH: 22 MAX:  -33.125000000    AVG:  -34.203125000
EPOCH: 23 MAX:  -33.125000000    AVG:  -33.884375000
EPOCH: 24 MAX:  -33.125000000    AVG:  -33.746875000
EPOCH: 25 MAX:  -33.125000000    AVG:  -33.737500000
EPOCH: 26 MAX:  -33.125000000    AVG:  -33.706250000
EPOCH: 27 MAX:  -33.125000000    AVG:  -33.640625000
EPOCH: 28 MAX:  -33.125000000    AVG:  -33.471875000
EPOCH: 29 MAX:  -33.125000000    AVG:  -33.125000000
EPOCH: 30 MAX:  -32.500000000    AVG:  -33.115625000
EPOCH: 31 MAX:  -32.500000000    AVG:  -33.081250000
EPOCH: 32 MAX:  -32.500000000    AVG:  -33.025000000
EPOCH: 33 MAX:  -32.500000000    AVG:  -32.859375000
EPOCH: 34 MAX:  -32.500000000    AVG:  -32.500000000
EPOCH: 35 MAX:  -32.500000000    AVG:  -32.500000000
EPOCH: 36 MAX:  -32.500000000    AVG:  -32.500000000
EPOCH: 37 MAX:  -32.500000000    AVG:  -32.500000000
EPOCH: 38 MAX:  -32.500000000    AVG:  -32.500000000
EPOCH: 39 MAX:  -32.500000000    AVG:  -32.500000000
EPOCH: 40 MAX:  -32.500000000    AVG:  -32.500000000
EPOCH: 41 MAX:  -32.500000000    AVG:  -32.500000000
EPOCH: 42 MAX:  -32.500000000    AVG:  -32.500000000
EPOCH: 43 MAX:  -31.875000000    AVG:  -32.496875000
EPOCH: 44 MAX:  -31.875000000    AVG:  -32.490625000
EPOCH: 45 MAX:  -31.875000000    AVG:  -32.484375000
EPOCH: 46 MAX:  -31.875000000    AVG:  -32.459375000
EPOCH: 47 MAX:  -31.875000000    AVG:  -32.346875000
EPOCH: 48 MAX:  -31.875000000    AVG:  -32.071875000
EPOCH: 49 MAX:  -31.875000000    AVG:  -31.875000000
EPOCH: 50 MAX:  -31.875000000    AVG:  -31.875000000
EPOCH: 51 MAX:  -31.875000000    AVG:  -31.875000000
EPOCH: 52 MAX:  -31.875000000    AVG:  -31.875000000
EPOCH: 53 MAX:  -31.875000000    AVG:  -31.875000000
EPOCH: 54 MAX:  -31.875000000    AVG:  -31.875000000
EPOCH: 55 MAX:  -31.875000000    AVG:  -31.875000000
EPOCH: 56 MAX:  -31.875000000    AVG:  -31.875000000
EPOCH: 57 MAX:  -31.875000000    AVG:  -31.875000000
EPOCH: 58 MAX:  -31.875000000    AVG:  -31.875000000
EPOCH: 59 MAX:  -31.875000000    AVG:  -31.875000000
EPOCH: 60 MAX:  -31.875000000    AVG:  -31.875000000
EPOCH: 61 MAX:  -31.875000000    AVG:  -31.875000000
EPOCH: 62 MAX:  -31.875000000    AVG:  -31.875000000
EPOCH: 63 MAX:  -31.875000000    AVG:  -31.875000000
EPOCH: 64 MAX:  -31.875000000    AVG:  -31.875000000
EPOCH: 65 MAX:  -31.875000000    AVG:  -31.875000000
EPOCH: 66 MAX:  -31.875000000    AVG:  -31.875000000
EPOCH: 67 MAX:  -31.875000000    AVG:  -31.875000000
EPOCH: 68 MAX:  -31.875000000    AVG:  -31.875000000
EPOCH: 69 MAX:  -31.875000000    AVG:  -31.875000000
EPOCH: 70 MAX:  -31.875000000    AVG:  -31.875000000
EPOCH: 71 MAX:  -31.875000000    AVG:  -31.875000000
EPOCH: 72 MAX:  -31.875000000    AVG:  -31.875000000
EPOCH: 73 MAX:  -31.875000000    AVG:  -31.875000000
EPOCH: 74 MAX:  -31.875000000    AVG:  -31.875000000
EPOCH: 75 MAX:  -31.875000000    AVG:  -31.875000000
EPOCH: 76 MAX:  -31.875000000    AVG:  -31.875000000
EPOCH: 77 MAX:  -31.875000000    AVG:  -31.875000000
EPOCH: 78 MAX:  -31.875000000    AVG:  -31.875000000
EPOCH: 79 MAX:  -31.875000000    AVG:  -31.875000000
EPOCH: 80 MAX:  -31.875000000    AVG:  -31.875000000
EPOCH: 81 MAX:  -31.875000000    AVG:  -31.875000000
EPOCH: 82 MAX:  -31.875000000    AVG:  -31.875000000
EPOCH: 83 MAX:  -31.875000000    AVG:  -31.875000000
EPOCH: 84 MAX:  -31.875000000    AVG:  -31.875000000
EPOCH: 85 MAX:  -31.875000000    AVG:  -31.875000000
EPOCH: 86 MAX:  -31.250000000    AVG:  -31.871875000
EPOCH: 87 MAX:  -31.250000000    AVG:  -31.856250000
EPOCH: 88 MAX:  -31.250000000    AVG:  -31.812500000
EPOCH: 89 MAX:  -31.250000000    AVG:  -31.693750000
EPOCH: 90 MAX:  -31.250000000    AVG:  -31.381250000
EPOCH: 91 MAX:  -31.250000000    AVG:  -31.250000000
EPOCH: 92 MAX:  -31.250000000    AVG:  -31.250000000
EPOCH: 93 MAX:  -31.250000000    AVG:  -31.250000000
EPOCH: 94 MAX:  -31.250000000    AVG:  -31.250000000
EPOCH: 95 MAX:  -31.250000000    AVG:  -31.250000000
EPOCH: 96 MAX:  -31.250000000    AVG:  -31.250000000
EPOCH: 97 MAX:  -31.250000000    AVG:  -31.250000000
EPOCH: 98 MAX:  -31.250000000    AVG:  -31.250000000
EPOCH: 99 MAX:  -31.250000000    AVG:  -31.250000000
EPOCH: 100 MAX:  -31.250000000    AVG:  -31.250000000
EPOCH: 101 MAX:  -31.250000000    AVG:  -31.250000000
EPOCH: 102 MAX:  -31.250000000    AVG:  -31.250000000
EPOCH: 103 MAX:  -31.250000000    AVG:  -31.250000000
EPOCH: 104 MAX:  -31.250000000    AVG:  -31.250000000
EPOCH: 105 MAX:  -31.250000000    AVG:  -31.250000000
EPOCH: 106 MAX:  -31.250000000    AVG:  -31.250000000
EPOCH: 107 MAX:  -31.250000000    AVG:  -31.250000000
EPOCH: 108 MAX:  -31.250000000    AVG:  -31.250000000
EPOCH: 109 MAX:  -31.250000000    AVG:  -31.250000000
EPOCH: 110 MAX:  -31.250000000    AVG:  -31.250000000
EPOCH: 111 MAX:  -31.250000000    AVG:  -31.250000000
EPOCH: 112 MAX:  -31.250000000    AVG:  -31.250000000
EPOCH: 113 MAX:  -31.250000000    AVG:  -31.250000000
EPOCH: 114 MAX:  -31.250000000    AVG:  -31.250000000
EPOCH: 115 MAX:  -31.250000000    AVG:  -31.250000000
EPOCH: 116 MAX:  -31.250000000    AVG:  -31.250000000
EPOCH: 117 MAX:  -31.250000000    AVG:  -31.250000000
HELPER:  ....
EPOCH: 118 MAX:  -5.625000000    AVG:  -31.034375000
EPOCH: 119 MAX:  -5.625000000    AVG:  -30.709375000
EPOCH: 120 MAX:  -5.625000000    AVG:  -29.743750000
EPOCH: 121 MAX:  -5.625000000    AVG:  -27.028125000
EPOCH: 122 MAX:  -5.625000000    AVG:  -22.990625000
EPOCH: 123 MAX:  -5.625000000    AVG:  -18.650000000
EPOCH: 124 MAX:  -5.625000000    AVG:  -15.028125000
EPOCH: 125 MAX:  -5.625000000    AVG:  -11.425000000
EPOCH: 126 MAX:  -5.625000000    AVG:  -8.121875000
EPOCH: 127 MAX:  -5.625000000    AVG:  -6.415625000
EPOCH: 128 MAX:  -5.625000000    AVG:  -5.715625000
EPOCH: 129 MAX:  -5.625000000    AVG:  -5.625000000
EPOCH: 130 MAX:  -5.625000000    AVG:  -5.625000000
EPOCH: 131 MAX:  -5.625000000    AVG:  -5.625000000
EPOCH: 132 MAX:  -5.625000000    AVG:  -5.625000000
EPOCH: 133 MAX:  -5.625000000    AVG:  -5.625000000
EPOCH: 134 MAX:  -5.625000000    AVG:  -5.625000000
EPOCH: 135 MAX:  -5.625000000    AVG:  -5.625000000
EPOCH: 136 MAX:  -5.625000000    AVG:  -5.625000000
EPOCH: 137 MAX:  -5.625000000    AVG:  -5.625000000
EPOCH: 138 MAX:  -5.625000000    AVG:  -5.625000000
EPOCH: 139 MAX:  -5.625000000    AVG:  -5.625000000
EPOCH: 140 MAX:  -5.625000000    AVG:  -5.625000000
EPOCH: 141 MAX:  -5.625000000    AVG:  -5.625000000
EPOCH: 142 MAX:  -5.625000000    AVG:  -5.625000000
EPOCH: 143 MAX:  -5.625000000    AVG:  -5.625000000
EPOCH: 144 MAX:  -5.625000000    AVG:  -5.625000000
EPOCH: 145 MAX:  -5.625000000    AVG:  -5.625000000
EPOCH: 146 MAX:  -5.625000000    AVG:  -5.625000000
EPOCH: 147 MAX:  -5.625000000    AVG:  -5.625000000
EPOCH: 148 MAX:  -5.625000000    AVG:  -5.625000000
EPOCH: 149 MAX:  -5.625000000    AVG:  -5.625000000
EPOCH: 150 MAX:  -5.625000000    AVG:  -5.625000000
EPOCH: 151 MAX:  -5.625000000    AVG:  -5.625000000
EPOCH: 152 MAX:  -5.625000000    AVG:  -5.625000000
EPOCH: 153 MAX:  -5.625000000    AVG:  -5.625000000
EPOCH: 154 MAX:  -5.625000000    AVG:  -5.625000000
EPOCH: 155 MAX:  -5.625000000    AVG:  -5.625000000
EPOCH: 156 MAX:  -5.625000000    AVG:  -5.625000000
EPOCH: 157 MAX:  -5.625000000    AVG:  -5.625000000
EPOCH: 158 MAX:  -5.625000000    AVG:  -5.625000000
EPOCH: 159 MAX:  -5.625000000    AVG:  -5.625000000
EPOCH: 160 MAX:  -5.625000000    AVG:  -5.625000000
EPOCH: 161 MAX:  -5.625000000    AVG:  -5.625000000
EPOCH: 162 MAX:  -5.625000000    AVG:  -5.625000000
EPOCH: 163 MAX:  -5.625000000    AVG:  -5.625000000
EPOCH: 164 MAX:  -5.625000000    AVG:  -5.625000000
EPOCH: 165 MAX:  -5.625000000    AVG:  -5.625000000
EPOCH: 166 MAX:  -5.625000000    AVG:  -5.625000000
EPOCH: 167 MAX:  -5.625000000    AVG:  -5.625000000
EPOCH: 168 MAX:  -5.625000000    AVG:  -5.625000000
EPOCH: 169 MAX:  -5.625000000    AVG:  -5.625000000
EPOCH: 170 MAX:  -5.625000000    AVG:  -5.625000000
EPOCH: 171 MAX:  -5.625000000    AVG:  -5.625000000
EPOCH: 172 MAX:  -5.625000000    AVG:  -5.625000000
EPOCH: 173 MAX:  -5.625000000    AVG:  -5.625000000
EPOCH: 174 MAX:  -5.625000000    AVG:  -5.625000000
EPOCH: 175 MAX:  -5.625000000    AVG:  -5.625000000
EPOCH: 176 MAX:  -5.625000000    AVG:  -5.625000000
EPOCH: 177 MAX:  -5.625000000    AVG:  -5.625000000
EPOCH: 178 MAX:  -5.625000000    AVG:  -5.625000000
EPOCH: 179 MAX:  -5.625000000    AVG:  -5.625000000
EPOCH: 180 MAX:  -5.625000000    AVG:  -5.625000000
EPOCH: 181 MAX:  -5.625000000    AVG:  -5.625000000
EPOCH: 182 MAX:  -5.625000000    AVG:  -5.625000000
EPOCH: 183 MAX:  -5.625000000    AVG:  -5.625000000
EPOCH: 184 MAX:  -5.625000000    AVG:  -5.625000000
EPOCH: 185 MAX:  -5.625000000    AVG:  -5.625000000
EPOCH: 186 MAX:  -5.625000000    AVG:  -5.625000000
EPOCH: 187 MAX:  -5.625000000    AVG:  -5.625000000
EPOCH: 188 MAX:  -5.625000000    AVG:  -5.625000000
EPOCH: 189 MAX:  -5.625000000    AVG:  -5.625000000
EPOCH: 190 MAX:  -5.625000000    AVG:  -5.625000000
EPOCH: 191 MAX:  -5.625000000    AVG:  -5.625000000
EPOCH: 192 MAX:  -5.625000000    AVG:  -5.625000000
EPOCH: 193 MAX:  -5.625000000    AVG:  -5.625000000
EPOCH: 194 MAX:  -5.625000000    AVG:  -5.625000000
EPOCH: 195 MAX:  -5.625000000    AVG:  -5.625000000
EPOCH: 196 MAX:  -5.625000000    AVG:  -5.625000000
EPOCH: 197 MAX:  -5.625000000    AVG:  -5.625000000
EPOCH: 198 MAX:  -5.625000000    AVG:  -5.625000000
EPOCH: 199 MAX:  -5.625000000    AVG:  -5.625000000
HELPER:  ....
EPOCH: 200 MAX:  -5.625000000    AVG:  -5.625000000
EPOCH: 201 MAX:  -5.625000000    AVG:  -5.625000000
EPOCH: 202 MAX:  -5.625000000    AVG:  -5.625000000
EPOCH: 203 MAX:  -5.625000000    AVG:  -5.625000000
EPOCH: 204 MAX:  -5.625000000    AVG:  -5.625000000
EPOCH: 205 MAX:  -5.625000000    AVG:  -5.625000000
EPOCH: 206 MAX:  -5.625000000    AVG:  -5.625000000
EPOCH: 207 MAX:  -5.625000000    AVG:  -5.625000000
EPOCH: 208 MAX:  -5.625000000    AVG:  -5.625000000
EPOCH: 209 MAX:  -5.625000000    AVG:  -5.625000000
EPOCH: 210 MAX:  -5.625000000    AVG:  -5.625000000
EPOCH: 211 MAX:  -5.625000000    AVG:  -5.625000000
EPOCH: 212 MAX:  -5.625000000    AVG:  -5.625000000
EPOCH: 213 MAX:  -5.625000000    AVG:  -5.625000000
EPOCH: 214 MAX:  -5.625000000    AVG:  -5.625000000
EPOCH: 215 MAX:  -5.625000000    AVG:  -5.625000000
EPOCH: 216 MAX:  -5.625000000    AVG:  -5.625000000
EPOCH: 217 MAX:  -5.625000000    AVG:  -5.625000000
EPOCH: 218 MAX:  -5.625000000    AVG:  -5.625000000
EPOCH: 219 MAX:  -5.625000000    AVG:  -5.625000000
EPOCH: 220 MAX:  -5.625000000    AVG:  -5.625000000
EPOCH: 221 MAX:  -5.625000000    AVG:  -5.625000000
EPOCH: 222 MAX:  -5.625000000    AVG:  -5.625000000
EPOCH: 223 MAX:  -5.625000000    AVG:  -5.625000000
EPOCH: 224 MAX:  -5.625000000    AVG:  -5.625000000
EPOCH: 225 MAX:  -5.625000000    AVG:  -5.625000000
EPOCH: 226 MAX:  -5.625000000    AVG:  -5.625000000
EPOCH: 227 MAX:  -5.625000000    AVG:  -5.625000000
EPOCH: 228 MAX:  -5.625000000    AVG:  -5.625000000
EPOCH: 229 MAX:  -5.625000000    AVG:  -5.625000000
EPOCH: 230 MAX:  -5.625000000    AVG:  -5.625000000
EPOCH: 231 MAX:  -5.625000000    AVG:  -5.625000000
EPOCH: 232 MAX:  -5.625000000    AVG:  -5.625000000
EPOCH: 233 MAX:  -5.625000000    AVG:  -5.625000000
EPOCH: 234 MAX:  -5.625000000    AVG:  -5.625000000
EPOCH: 235 MAX:  -5.625000000    AVG:  -5.625000000
EPOCH: 236 MAX:  -5.625000000    AVG:  -5.625000000
EPOCH: 237 MAX:  -5.625000000    AVG:  -5.625000000
EPOCH: 238 MAX:  -5.625000000    AVG:  -5.625000000
EPOCH: 239 MAX:  -5.625000000    AVG:  -5.625000000
EPOCH: 240 MAX:  -5.625000000    AVG:  -5.625000000
EPOCH: 241 MAX:  -5.625000000    AVG:  -5.625000000
EPOCH: 242 MAX:  -5.625000000    AVG:  -5.625000000
EPOCH: 243 MAX:  -5.625000000    AVG:  -5.625000000
EPOCH: 244 MAX:  -5.625000000    AVG:  -5.625000000
EPOCH: 245 MAX:  -5.625000000    AVG:  -5.625000000
EPOCH: 246 MAX:  -5.625000000    AVG:  -5.625000000
EPOCH: 247 MAX:  -5.625000000    AVG:  -5.625000000
EPOCH: 248 MAX:  -5.625000000    AVG:  -5.625000000
EPOCH: 249 MAX:  -5.625000000    AVG:  -5.625000000
EPOCH: 250 MAX:  -5.625000000    AVG:  -5.625000000
EPOCH: 251 MAX:  -5.625000000    AVG:  -5.625000000
EPOCH: 252 MAX:  -5.625000000    AVG:  -5.625000000
EPOCH: 253 MAX:  -5.625000000    AVG:  -5.625000000
EPOCH: 254 MAX:  -5.625000000    AVG:  -5.625000000
EPOCH: 255 MAX:  -5.625000000    AVG:  -5.625000000
EPOCH: 256 MAX:  -5.625000000    AVG:  -5.625000000
EPOCH: 257 MAX:  -5.625000000    AVG:  -5.625000000
EPOCH: 258 MAX:  -5.625000000    AVG:  -5.625000000
EPOCH: 259 MAX:  -5.625000000    AVG:  -5.625000000
EPOCH: 260 MAX:  -5.625000000    AVG:  -5.625000000
EPOCH: 261 MAX:  -5.625000000    AVG:  -5.625000000
EPOCH: 262 MAX:  -5.625000000    AVG:  -5.625000000
EPOCH: 263 MAX:  -5.625000000    AVG:  -5.625000000
EPOCH: 264 MAX:  -5.625000000    AVG:  -5.625000000
EPOCH: 265 MAX:  -5.625000000    AVG:  -5.625000000
EPOCH: 266 MAX:  -5.625000000    AVG:  -5.625000000
EPOCH: 267 MAX:  -5.625000000    AVG:  -5.625000000
EPOCH: 268 MAX:  -5.625000000    AVG:  -5.625000000
EPOCH: 269 MAX:  -5.625000000    AVG:  -5.625000000
HELPER:  ....
---------------------------
CH: 0 392.000000000
CH: 1 392.000000000
CH: 2 392.000000000
CH: 3 392.000000000
CH: 4 392.000000000
CH: 5 386.000000000
CH: 6 392.000000000
CH: 7 386.000000000
CH: 8 392.000000000
CH: 9 381.000000000
CH: 10 392.000000000
CH: 11 392.000000000
CH: 12 392.000000000
CH: 13 392.000000000
CH: 14 386.000000000
CH: 15 380.000000000
CH: 16 386.000000000
CH: 17 381.000000000
CH: 18 392.000000000
CH: 19 378.000000000
CH: 20 380.000000000
CH: 21 392.000000000
CH: 22 378.000000000
CH: 23 392.000000000
CH: 24 392.000000000
CH: 25 386.000000000
CH: 26 386.000000000
CH: 27 381.000000000
CH: 28 380.000000000
CH: 29 381.000000000
CH: 30 386.000000000
CH: 31 392.000000000
CH: 32 392.000000000
CH: 33 378.000000000
CH: 34 356.000000000
CH: 35 356.000000000
CH: 36 392.000000000
CH: 37 351.000000000
CH: 38 392.000000000
CH: 39 356.000000000
CH: 40 380.000000000
CH: 41 392.000000000
CH: 42 386.000000000
CH: 43 386.000000000
CH: 44 386.000000000
CH: 45 392.000000000
CH: 46 386.000000000
CH: 47 380.000000000
CH: 48 381.000000000
CH: 49 392.000000000
CH: 50 380.000000000
CH: 51 392.000000000
CH: 52 386.000000000
CH: 53 392.000000000
CH: 54 381.000000000
CH: 55 320.000000000
CH: 56 386.000000000
CH: 57 318.000000000
CH: 58 378.000000000
CH: 59 392.000000000
CH: 60 386.000000000
CH: 61 392.000000000
CH: 62 392.000000000
CH: 63 356.000000000
CH: 64 386.000000000
CH: 65 392.000000000
CH: 66 320.000000000
CH: 67 392.000000000
CH: 68 351.000000000
CH: 69 351.000000000
CH: 70 392.000000000
CH: 71 392.000000000
CH: 72 248.000000000
CH: 73 320.000000000
CH: 74 392.000000000
CH: 75 381.000000000
CH: 76 386.000000000
CH: 77 378.000000000
CH: 78 392.000000000
CH: 79 318.000000000





END ------------------------
ERROR: 0.000000000
NUM OF COLORS USED = 10
